tsp_instances/TSP50/instance124.tsp
NODE_COORD_SECTION
0 39 30
1 183 162
2 90 21
3 173 11
4 178 47
5 84 199
6 147 63
7 55 116
8 77 80
9 94 79
10 73 133
11 136 33
12 152 166
13 42 143
14 145 109
15 130 184
16 153 16
17 77 141
18 24 91
19 57 180
20 26 62
21 116 153
22 149 20
23 171 200
24 52 46
25 72 197
26 165 82
27 154 199
28 138 13
29 145 62
30 125 54
31 55 47
32 7 161
33 26 125
34 86 141
35 183 101
36 114 62
37 169 55
38 27 139
39 59 111
40 106 26
41 84 184
42 114 4
43 163 80
44 152 153
45 111 53
46 12 18
47 39 103
48 11 94
49 42 70
