tsp_instances/TSP50/instance124.opt.tour
TOUR_SECTION
1
25
32
9
10
37
46
31
12
41
3
43
29
23
17
4
5
38
7
30
44
27
36
15
45
13
2
24
28
16
22
42
6
26
20
33
39
34
14
18
35
11
40
8
48
49
19
50
21
47
-1